clingo version 5.6.2
Reading from ...etition/0052-graph_colouring-150-0.asp ...
Solving...
UNKNOWN

TIME LIMIT   : 1
Models       : 0+
Calls        : 1
Time         : 600.023s (Solving: 599.78s 1st Model: 0.00s Unsat: 0.00s)
CPU Time     : 599.862s

Choices      : 12194039
Conflicts    : 11279224 (Analyzed: 11279224)
Restarts     : 21398    (Average: 527.12 Last: 11279136)
Problems     : 1        (Average Length: 0.00 Splits: 0)
Lemmas       : 11279224 (Deleted: 11227724)
  Binary     : 42       (Ratio:   0.00%)
  Ternary    : 565      (Ratio:   0.01%)
  Conflict   : 11279224 (Average Length:   31.8 Ratio: 100.00%) 
  Loop       : 0        (Average Length:    0.0 Ratio:   0.00%) 
  Other      : 0        (Average Length:    0.0 Ratio:   0.00%) 
Backjumps    : 11279224 (Average:  1.07 Max:  11 Sum: 12031727)
  Executed   : 11279224 (Average:  1.07 Max:  11 Sum: 12031727 Ratio: 100.00%)
  Bounded    : 0        (Average:  0.00 Max:   0 Sum:      0 Ratio:   0.00%)

Rules        : 21712   
Atoms        : 3950    
Bodies       : 1480    
Equivalences : 2929     (Atom=Atom: 16 Body=Body: 727 Other: 2186)
Tight        : Yes
Variables    : 882      (Eliminated:    0 Frozen:    0)
Constraints  : 8729     (Binary:  90.0% Ternary:   0.0% Other:  10.0%)

